18 70
28 95
51 44
20 32
41 3
24 27
10 47
96 36
1 118
67 46
26 49
41 94
49 5
40 26
52 113
2 125
93 36
99 16
52 62
23 131
21 65
12 140
95 58
37 91
96 37
17 196
100 25
3 18
1 17
2 79
70 47
55 47
55 91
20 157
15 18
1 185
84 63
92 15
12 137
98 54
14 35
1 38
46 33
17 43
20 3
14 22
9 16
96 3
18 60
16 106
